(set-logic ALL)
(declare-fun var0 () String)
(assert (str.in_re var0 (re.++ (re.union (re.+ (str.to_re "00")) (re.+ (str.to_re "1"))) (re.++ (re.+ (re.* (str.to_re "2"))) (re.++ (re.+ (re.union (str.to_re "33") (str.to_re "44"))) (re.++ (re.* (re.* (str.to_re "55"))) (re.++ (re.* (re.* (str.to_re "6"))) (re.++ (re.union (re.* (str.to_re "77")) (re.* (str.to_re "8"))) (re.++ (re.union (re.+ (str.to_re "99")) (re.+ (str.to_re "aa"))) (re.++ (re.+ (re.* (str.to_re "bb"))) (re.++ (re.* (re.union (str.to_re "ccc") (str.to_re "ddd"))) (re.++ (re.* (re.union (str.to_re "e") (str.to_re "fff"))) (re.++ (re.* (re.union (str.to_re "gg") (str.to_re "hh"))) (re.++ (re.* (re.union (str.to_re "ii") (str.to_re "jjj"))) (re.++ (re.+ (re.+ (str.to_re "kk"))) (re.++ (re.* (re.union (str.to_re "lll") (str.to_re "mmm"))) (re.++ (re.union (re.+ (str.to_re "nnn")) (re.+ (str.to_re "oo"))) (re.++ (re.* (re.* (str.to_re "ppp"))) (re.++ (re.union (re.+ (str.to_re "qq")) (re.+ (str.to_re "r"))) (re.++ (re.* (re.* (str.to_re "sss"))) (re.++ (re.* (re.* (str.to_re "t"))) (re.++ (re.union (re.union (str.to_re "u") (str.to_re "vvv")) (re.union (str.to_re "www") (str.to_re "x"))) (re.++ (re.+ (re.union (str.to_re "yyy") (str.to_re "zz"))) (re.++ (re.+ (re.+ (str.to_re "A"))) (re.++ (re.+ (re.union (str.to_re "BBB") (str.to_re "CCC"))) (re.++ (re.* (re.* (str.to_re "DDD"))) (re.++ (re.* (re.union (str.to_re "EE") (str.to_re "F"))) (re.++ (re.+ (re.* (str.to_re "G"))) (re.++ (re.* (re.* (str.to_re "HH"))) (re.++ (re.union (re.union (str.to_re "I") (str.to_re "JJJ")) (re.union (str.to_re "K") (str.to_re "L"))) (re.++ (re.+ (re.+ (str.to_re "MM"))) (re.++ (re.+ (re.union (str.to_re "NNN") (str.to_re "O"))) (re.++ (re.union (re.+ (str.to_re "PP")) (re.+ (str.to_re "QQ"))) (re.++ (re.+ (re.* (str.to_re "RRR"))) (re.++ (re.union (re.+ (str.to_re "SS")) (re.+ (str.to_re "T"))) (re.++ (re.+ (re.+ (str.to_re "U"))) (re.++ (re.* (re.union (str.to_re "VV") (str.to_re "WWW"))) (re.++ (re.+ (re.union (str.to_re "XXX") (str.to_re "YY"))) (re.++ (re.union (re.union (str.to_re "ZZZ") (str.to_re "!!")) (re.union (str.to_re """""") (str.to_re "#"))) (re.++ (re.+ (re.union (str.to_re "$$$") (str.to_re "%%%"))) (re.++ (re.union (re.union (str.to_re "&&") (str.to_re "'''")) (re.union (str.to_re "((") (str.to_re ")))"))) (re.++ (re.union (re.union (str.to_re "**") (str.to_re "+++")) (re.union (str.to_re ",,") (str.to_re "--"))) (re.++ (re.* (re.+ (str.to_re "."))) (re.++ (re.* (re.+ (str.to_re "///"))) (re.++ (re.+ (re.+ (str.to_re "::"))) (re.++ (re.+ (re.union (str.to_re ";;;") (str.to_re "<"))) (re.++ (re.* (re.union (str.to_re "=") (str.to_re ">>>"))) (re.++ (re.+ (re.union (str.to_re "??") (str.to_re "@@"))) (re.++ (re.* (re.union (str.to_re "[") (str.to_re "\\"))) (re.++ (re.union (re.+ (str.to_re "]]")) (re.+ (str.to_re "^^^"))) (re.++ (re.* (re.+ (str.to_re "__"))) (re.++ (re.union (re.+ (str.to_re "`")) (re.+ (str.to_re "{"))) (re.++ (re.* (re.+ (str.to_re "||"))) (re.++ (re.+ (re.* (str.to_re "}}"))) (re.++ (re.* (re.+ (str.to_re "~~~"))) (re.++ (re.* (re.+ (str.to_re "00"))) (re.++ (re.union (re.union (str.to_re "11") (str.to_re "2")) (re.union (str.to_re "33") (str.to_re "44"))) (re.++ (re.+ (re.union (str.to_re "5") (str.to_re "666"))) (re.++ (re.union (re.union (str.to_re "7") (str.to_re "88")) (re.union (str.to_re "999") (str.to_re "a"))) (re.++ (re.union (re.+ (str.to_re "bb")) (re.+ (str.to_re "cc"))) (re.++ (re.* (re.union (str.to_re "d") (str.to_re "e"))) (re.++ (re.+ (re.+ (str.to_re "f"))) (re.++ (re.union (re.+ (str.to_re "ggg")) (re.+ (str.to_re "hhh"))) (re.++ (re.+ (re.* (str.to_re "i"))) (re.++ (re.+ (re.* (str.to_re "jjj"))) (re.++ (re.union (re.+ (str.to_re "k")) (re.+ (str.to_re "ll"))) (re.++ (re.+ (re.+ (str.to_re "m"))) (re.++ (re.+ (re.+ (str.to_re "n"))) (re.++ (re.* (re.* (str.to_re "oo"))) (re.++ (re.+ (re.+ (str.to_re "p"))) (re.++ (re.union (re.union (str.to_re "qq") (str.to_re "rr")) (re.union (str.to_re "s") (str.to_re "t"))) (re.++ (re.union (re.+ (str.to_re "u")) (re.+ (str.to_re "v"))) (re.+ (re.* (str.to_re "www")))))))))))))))))))))))))))))))))))))))))))))))))))))))))))))))))))))))))))
(assert (not (str.in_re var0 (re.++ (re.* (re.* (str.to_re "0"))) (re.++ (re.+ (re.* (str.to_re "1"))) (re.++ (re.union (re.union (str.to_re "2") (str.to_re "33")) (re.union (str.to_re "4") (str.to_re "55"))) (re.++ (re.union (re.* (str.to_re "6")) (re.* (str.to_re "77"))) (re.++ (re.* (re.+ (str.to_re "88"))) (re.++ (re.+ (re.* (str.to_re "9"))) (re.++ (re.union (re.* (str.to_re "aa")) (re.* (str.to_re "bb"))) (re.++ (re.union (re.* (str.to_re "cc")) (re.* (str.to_re "d"))) (re.++ (re.* (re.union (str.to_re "e") (str.to_re "f"))) (re.++ (re.* (re.* (str.to_re "g"))) (re.++ (re.* (re.union (str.to_re "h") (str.to_re "ii"))) (re.++ (re.+ (re.* (str.to_re "j"))) (re.++ (re.+ (re.+ (str.to_re "kkk"))) (re.++ (re.* (re.+ (str.to_re "l"))) (re.++ (re.+ (re.* (str.to_re "mm"))) (re.++ (re.+ (re.* (str.to_re "nnn"))) (re.++ (re.union (re.+ (str.to_re "oo")) (re.+ (str.to_re "pp"))) (re.++ (re.* (re.+ (str.to_re "q"))) (re.++ (re.* (re.* (str.to_re "r"))) (re.++ (re.+ (re.+ (str.to_re "sss"))) (re.++ (re.* (re.union (str.to_re "t") (str.to_re "uuu"))) (re.++ (re.union (re.union (str.to_re "vvv") (str.to_re "ww")) (re.union (str.to_re "xx") (str.to_re "yyy"))) (re.++ (re.* (re.union (str.to_re "zz") (str.to_re "AA"))) (re.++ (re.+ (re.+ (str.to_re "BBB"))) (re.++ (re.+ (re.union (str.to_re "CCC") (str.to_re "D"))) (re.++ (re.+ (re.* (str.to_re "EE"))) (re.++ (re.union (re.+ (str.to_re "F")) (re.+ (str.to_re "G"))) (re.++ (re.+ (re.* (str.to_re "H"))) (re.++ (re.* (re.* (str.to_re "II"))) (re.++ (re.* (re.* (str.to_re "JJJ"))) (re.++ (re.union (re.union (str.to_re "KK") (str.to_re "LLL")) (re.union (str.to_re "M") (str.to_re "N"))) (re.++ (re.+ (re.union (str.to_re "OO") (str.to_re "P"))) (re.++ (re.* (re.* (str.to_re "Q"))) (re.++ (re.* (re.* (str.to_re "RRR"))) (re.++ (re.+ (re.* (str.to_re "S"))) (re.++ (re.+ (re.+ (str.to_re "TT"))) (re.++ (re.* (re.union (str.to_re "UUU") (str.to_re "VVV"))) (re.++ (re.union (re.+ (str.to_re "WWW")) (re.+ (str.to_re "XXX"))) (re.++ (re.union (re.* (str.to_re "YYY")) (re.* (str.to_re "ZZ"))) (re.++ (re.union (re.* (str.to_re "!")) (re.* (str.to_re """"""))) (re.++ (re.union (re.+ (str.to_re "###")) (re.+ (str.to_re "$$$"))) (re.++ (re.* (re.union (str.to_re "%%%") (str.to_re "&&"))) (re.++ (re.* (re.+ (str.to_re "'"))) (re.++ (re.* (re.+ (str.to_re "("))) (re.++ (re.union (re.+ (str.to_re ")))")) (re.+ (str.to_re "*"))) (re.++ (re.union (re.union (str.to_re "+++") (str.to_re ",,")) (re.union (str.to_re "-") (str.to_re "..."))) (re.++ (re.+ (re.* (str.to_re "/"))) (re.++ (re.+ (re.* (str.to_re "::"))) (re.++ (re.* (re.union (str.to_re ";;;") (str.to_re "<<"))) (re.++ (re.* (re.* (str.to_re "="))) (re.++ (re.union (re.+ (str.to_re ">")) (re.+ (str.to_re "??"))) (re.++ (re.+ (re.union (str.to_re "@@") (str.to_re "[[["))) (re.++ (re.+ (re.* (str.to_re "\\\\\\"))) (re.++ (re.+ (re.* (str.to_re "]]]"))) (re.++ (re.* (re.* (str.to_re "^^^"))) (re.++ (re.* (re.union (str.to_re "__") (str.to_re "``"))) (re.++ (re.* (re.+ (str.to_re "{{{"))) (re.++ (re.union (re.+ (str.to_re "|||")) (re.+ (str.to_re "}"))) (re.++ (re.* (re.+ (str.to_re "~"))) (re.++ (re.* (re.union (str.to_re "00") (str.to_re "111"))) (re.++ (re.union (re.* (str.to_re "2")) (re.* (str.to_re "333"))) (re.++ (re.union (re.* (str.to_re "44")) (re.* (str.to_re "555"))) (re.++ (re.union (re.+ (str.to_re "666")) (re.+ (str.to_re "7"))) (re.++ (re.+ (re.+ (str.to_re "8"))) (re.++ (re.+ (re.union (str.to_re "999") (str.to_re "aaa"))) (re.++ (re.* (re.union (str.to_re "bbb") (str.to_re "ccc"))) (re.++ (re.+ (re.union (str.to_re "ddd") (str.to_re "ee"))) (re.++ (re.+ (re.union (str.to_re "fff") (str.to_re "g"))) (re.++ (re.* (re.* (str.to_re "hhh"))) (re.++ (re.+ (re.+ (str.to_re "iii"))) (re.* (re.+ (str.to_re "jj"))))))))))))))))))))))))))))))))))))))))))))))))))))))))))))))))))))))))))))
(check-sat)